#
# MD of liquid water, 
# using FlxSPC and ClayFF
#

@SET SYSTEM run-H2O-MD-T300

&GLOBAL
  PROJECT ${SYSTEM}
  RUN_TYPE MD
  PRINT_LEVEL MEDIUM
  &PRINT
   PHYSCON
  &END PRINT
&END GLOBAL

&FORCE_EVAL
  METHOD FIST
  &MM
    &PRINT
      !&DIPOLE
       !PERIODIC TRUE 
       !&EACH
         !MD 1
       !&END
       !FILENAME =dipole.traj
      !&END DIPOLE
    &END
    &FORCEFIELD
      &BEND
        ATOMS HW OW HW   #FlxSPC
        K [kcalmol*rad^-2] 91.55177
        KIND harmonic
        THETA0 [deg] 109.47
      &END BEND
      &BOND
        ATOMS OW HW   #FlxSPC
        K [kcalmol*Angstrom^-2] 1106.001
        KIND harmonic
        R0 [Angstrom] 1.0
      &END BOND
      &BOND
        ATOMS H O_H  #ClayFF
        K [kcalmol*Angstrom^-2] 1106.001
        KIND harmonic
        R0 [Angstrom] 1.0
      &END BOND
      &CHARGE
        ATOM OW  #FlxSPC
        CHARGE  -0.820
      &END CHARGE
      &CHARGE
        ATOM HW  #FlxSPC
        CHARGE +0.410
      &END CHARGE
      &CHARGE
        ATOM Fe  #ClayFF
        CHARGE +1.575
      &END CHARGE
      &CHARGE
        ATOM O   #ClayFF
        CHARGE -1.050
      &END CHARGE
      &CHARGE   #ClayFF
        ATOM O_H    
        CHARGE -0.950
      &END CHARGE
      &CHARGE
        ATOM H  #ClayFF
        CHARGE +0.425
      &END CHARGE

      &NONBONDED
        &LENNARD-JONES
          ATOMS HW HW  #based on Flexible simple point-charge water model paper for SPC
          EPSILON [kcalmol] 0.0
          SIGMA [Angstrom] 1.0
          RCUT [Angstrom] 5.0
        &END LENNARD-JONES
	 &LENNARD-JONES  #all H-H epsolon are 0 
          ATOMS H H
          EPSILON [kcalmol] 0.0
          SIGMA [Angstrom] 1.0
          RCUT [Angstrom] 5.0
        &END LENNARD-JONES
        &LENNARD-JONES  #all H-H epsilon are 0
          ATOMS H HW
          EPSILON [kcalmol] 0.0
          SIGMA [Angstrom] 1.0
          RCUT [Angstrom] 5.0
        &END LENNARD-JONES
        &LENNARD-JONES
          ATOMS OW HW #based on Flexible simple point-charge water model paper for SPC
          EPSILON [kcalmol] 0.0
          SIGMA [Angstrom] 1.0
          RCUT [Angstrom] 5.0
        &END LENNARD-JONES
	 &LENNARD-JONES
          ATOMS O HW #based on Flexible simple point-charge water model paper for SPC
          EPSILON [kcalmol] 0.0
          SIGMA [Angstrom] 1.0
          RCUT [Angstrom] 5.0
        &END LENNARD-JONES
	&LENNARD-JONES
          ATOMS O_H HW #based on Flexible simple point-charge water model paper for SPC
          EPSILON [kcalmol] 0.0
          SIGMA [Angstrom] 1.0
          RCUT [Angstrom] 5.0
        &END LENNARD-JONES
	&LENNARD-JONES
          ATOMS OW H   #based on Flexible simple point-charge water model paper for SPC
          EPSILON [kcalmol] 0.0
          SIGMA [Angstrom] 1.0
          RCUT [Angstrom] 5.0
        &END LENNARD-JONES
	&LENNARD-JONES
          ATOMS O H     #based on Flexible simple point-charge water model paper for SPC
          EPSILON [kcalmol] 0.0
          SIGMA [Angstrom] 1.0
          RCUT [Angstrom] 5.0
        &END LENNARD-JONES
	&LENNARD-JONES
          ATOMS O_H H     #based on Flexible simple point-charge water model paper for SPC
          EPSILON [kcalmol] 0.0
          SIGMA [Angstrom] 1.0
          RCUT [Angstrom] 5.0
        &END LENNARD-JONES
	&LENNARD-JONES
          ATOMS H Fe #it is notdefined -> assigend 0
          EPSILON [kcalmol] 0.0
          SIGMA [Angstrom] 1.0
          RCUT [Angstrom] 5.0
        &END LENNARD-JONES


        &LENNARD-JONES
          ATOMS OW OW   #FlxSPC
          EPSILON [kcalmol] 0.1554
          SIGMA [Angstrom] 3.1655
          RCUT [Angstrom] 5.0
        &END LENNARD-JONES
	&LENNARD-JONES
          ATOMS OW O  #ClayFF
          EPSILON [kcalmol] 0.1554
          SIGMA [Angstrom] 3.1655
          RCUT [Angstrom] 5.0
        &END LENNARD-JONES
        &LENNARD-JONES
          ATOMS O O  #ClayFF
          EPSILON [kcalmol] 0.1554
          SIGMA [Angstrom] 3.1655
          RCUT [Angstrom] 5.0
        &END LENNARD-JONES
        &LENNARD-JONES
          ATOMS O O_H  #ClayFF
          EPSILON [kcalmol] 0.1554
          SIGMA [Angstrom] 3.1655
          RCUT [Angstrom] 5.0
        &END LENNARD-JONES
	&LENNARD-JONES
          ATOMS O_H O_H  #ClayFF
          EPSILON [kcalmol] 0.1554
          SIGMA [Angstrom] 3.1655
          RCUT [Angstrom] 5.0
        &END LENNARD-JONES
        &LENNARD-JONES
          ATOMS O_H OW  #ClayFF
          EPSILON [kcalmol] 0.1554
          SIGMA [Angstrom] 3.1655
          RCUT [Angstrom] 5.0
        &END LENNARD-JONES

	&LENNARD-JONES
          ATOMS Fe OW #ClayFF
          EPSILON [kcalmol] 3.4588
          SIGMA [Angstrom] 1.91545
          RCUT [Angstrom] 5.0
        &END LENNARD-JONES
        &LENNARD-JONES
          ATOMS Fe HW #not assigned -> 0 
          EPSILON [kcalmol] 0
          SIGMA [Angstrom] 1.0
          RCUT [Angstrom] 5.0
        &END LENNARD-JONES
     
        &LENNARD-JONES
          ATOMS Fe Fe #ClayFF
          EPSILON [kcalmol] 9.03E-06
          SIGMA [Angstrom] 4.072218
          RCUT [Angstrom] 5.0
        &END LENNARD-JONES
        &LENNARD-JONES
          ATOMS Fe O #ClayFF
          EPSILON [kcalmol] 0.001185
          SIGMA [Angstrom] 3.618831
          RCUT [Angstrom] 5.0
        &END LENNARD-JONES
        &LENNARD-JONES
          ATOMS Fe O_H #ClayFF
          EPSILON [kcalmol] 0.001185
          SIGMA [Angstrom] 3.618831
          RCUT [Angstrom] 5.0
        &END LENNARD-JONES
      &END NONBONDED
      &SPLINE
        EMAX_SPLINE [hartree] 5.0E-1
      &END SPLINE
    &END FORCEFIELD
    &POISSON
      PERIODIC XYZ
      &EWALD
        EWALD_TYPE spme
        ALPHA 0.3
        GMAX 10
        O_SPLINE 10
      &END EWALD
    &END POISSON
    &NEIGHBOR_LISTS
      GEO_CHECK T
    &END
  &END MM
  &SUBSYS
    &CELL
       PERIODIC XYZ
       A  10.0660314560         0.0000000000         0.0000000000
       B  -5.0330136805         8.7170359926         0.0000000000
       C   0.0028619521         0.0060767550        50.2170443811

       MULTIPLE_UNIT_CELL 1 1 1
       !CELL_FILE_FORMAT CIF
       !CELL_FILE_NAME 3D_water.cif  
      &END CELL
      &TOPOLOGY
          !COORD_FILE_FORMAT CIF
	  !COORD_FILE_NAME 3D_water.cif  
	  MULTIPLE_UNIT_CELL 1 1 1
	  CONNECTIVITY GENERATE
          &GENERATE
          &END
      &END TOPOLOGY
      &COORD
 Fe         0.0008160000        2.9084740000       18.0102920000
 Fe        10.0671620000        0.0039270000       22.5858190000
 Fe         2.5171070000        1.4554260000       13.4297950000
 Fe         2.5174190000        1.4547580000       16.3375130000
 Fe         0.0008250000        2.9089740000       20.9185120000
 Fe        10.0673530000        0.0039580000       25.5014190000
 Fe         0.0008670000        2.9076900000       14.0487710000
 Fe        10.0667960000        0.0026120000       18.6317290000
 Fe         2.5169700000        1.4563650000       23.2073060000
 Fe        10.0665890000        0.0026250000       15.7160770000
 Fe         2.5170910000        1.4567540000       20.2991350000
 Fe         0.0009500000        2.9096450000       24.8799860000
 Fe         5.0341630000        2.9088050000       18.0102920000
 Fe         5.0339600000        0.0036400000       22.5859700000
 Fe         7.5499920000        1.4559840000       13.4298960000
 Fe         7.5509980000        1.4551420000       16.3375130000
 Fe         5.0342230000        2.9086950000       20.9193150000
 Fe         5.0341770000        0.0042190000       25.5013200000
 Fe         5.0335900000        2.9074800000       14.0496240000
 Fe         5.0338050000        0.0029000000       18.6316280000
 Fe         7.5505440000        1.4559030000       23.2072540000
 Fe         5.0335890000        0.0023550000       15.7162280000
 Fe         7.5499860000        1.4560740000       20.2991870000
 Fe         5.0339310000        2.9099680000       24.8799860000
 Fe        -2.5154800000        7.2677590000       18.0102920000
 Fe        -2.5150990000        4.3626460000       22.5859700000
 Fe         0.0005000000        5.8141880000       13.4289920000
 Fe         0.0012190000        5.8137380000       16.3375130000
 Fe        -2.5149370000        7.2675790000       20.9184630000
 Fe         7.5507060000        4.3622840000       25.5013200000
 Fe        -2.5159170000        7.2656760000       14.0487710000
 Fe         7.5500880000        4.3611300000       18.6316280000
 Fe         0.0009920000        5.8148920000       23.2073060000
 Fe         7.5503040000        4.3615090000       15.7162780000
 Fe         0.0008660000        5.8148710000       20.2982830000
 Fe        -2.5159490000        7.2685120000       24.8799860000
 Fe         2.5180740000        7.2674190000       18.0102920000
 Fe         2.5175640000        4.3627680000       22.5859700000
 Fe         5.0331080000        5.8140050000       13.4298460000
 Fe         5.0339980000        5.8140430000       16.3375630000
 Fe         2.5179180000        7.2670210000       20.9184630000
 Fe         2.5181730000        4.3624410000       25.5013200000
 Fe         2.5169530000        7.2663290000       14.0487710000
 Fe         2.5175200000        4.3608940000       18.6315780000
 Fe         5.0341380000        5.8152410000       23.2073060000
 Fe         2.5168760000        4.3612650000       15.7162280000
 Fe         5.0341030000        5.8146970000       20.2990860000
 Fe         2.5176150000        7.2689910000       24.8800350000
  O         3.2891590000        0.1204220000       14.8799630000
  O         0.7703610000        1.5735400000       19.4672910000
  O         8.3219820000        3.0261340000       24.0434680000
  O         3.2864870000        2.7904240000       14.8812190000
  O         0.7726410000        4.2427400000       19.4671900000
  O         0.7712310000        1.3383590000       24.0437200000
  O         0.9763670000        1.4540590000       14.8803650000
  O        -1.5406740000        2.9101150000       19.4677430000
  O         3.4910870000        0.0038950000       24.0435700000
  O         9.2965910000        1.3370490000       17.1740280000
  O         1.7478370000        2.7923270000       21.7499070000
  O         1.7460570000        3.0247800000       17.1737770000
  O         1.7460450000        0.1222470000       21.7499070000
  O         1.5414690000        0.0026450000       17.1739790000
  O         4.0583280000        1.4549340000       21.7507590000
  O         8.3216960000        0.1209890000       14.8803650000
  O         5.8030190000        1.5738460000       19.4676910000
  O         3.2879200000        3.0272150000       24.0436190000
  O         8.3200160000        2.7910520000       14.8804150000
  O         5.8054300000        4.2423660000       19.4680420000
  O         5.8049460000        1.3388560000       24.0438190000
  O         6.0094130000        1.4537450000       14.8808670000
  O         3.4935850000        2.9101580000       19.4676910000
  O         8.5263870000        0.0039120000       24.0435180000
  O         4.2628910000        1.3375540000       17.1741790000
  O         6.7813310000        2.7917090000       21.7507590000
  O         6.7802100000        3.0259130000       17.1739270000
  O         6.7784770000        0.1216540000       21.7495540000
  O         6.5767440000        0.0026710000       17.1739270000
  O         9.0914090000        1.4551690000       21.7502570000
  O         0.7722290000        4.4801080000       14.8799630000
  O        -1.7462820000        5.9319800000       19.4668390000
  O         5.8044890000        7.3867090000       24.0435180000
  O         0.7699650000        7.1486020000       14.8803650000
  O        -1.7434320000        8.6020780000       19.4680940000
  O        -1.7451600000        5.6978270000       24.0435700000
  O        -1.5395500000        5.8124280000       14.8800640000
  O        -4.0563400000        7.2685020000       19.4673400000
  O         0.9761550000        4.3620900000       24.0433690000
  O         6.7790780000        5.6976240000       17.1740280000
  O        -0.7679500000        7.1498600000       21.7499560000
  O        -0.7699320000        7.3848760000       17.1736770000
  O        -0.7703410000        4.4813400000       21.7495540000
  O        -0.9741220000        4.3608840000       17.1738780000
  O         1.5415000000        5.8135390000       21.7498570000
  O         5.8054860000        4.4797070000       14.8808170000
  O         3.2872170000        5.9313700000       19.4675900000
  O         0.7721480000        7.3861690000       24.0433690000
  O         5.8033980000        7.1488720000       14.8807160000
  O         3.2890340000        8.6014760000       19.4676910000
  O         3.2889930000        5.6989260000       24.0437700000
  O         3.4922670000        5.8124280000       14.8800130000
  O         0.9767160000        7.2687980000       19.4668390000
  O         6.0091910000        4.3628740000       24.0436710000
  O         1.7471750000        5.6964990000       17.1738780000
  O         4.2646680000        7.1501650000       21.7502570000
  O         4.2638340000        7.3853550000       17.1738280000
  O         4.2624030000        4.4809740000       21.7503590000
  O         4.0589190000        4.3615900000       17.1741290000
  O         6.5756980000        5.8136170000       21.7499070000
  H         6.2061661138        3.7757603388       12.2713393808    OH
  O_H         6.5736760000        2.9092660000       12.5985530000  OH
  H         3.3726819672        3.7823665658       12.3942915017    OH
  O_H         4.2619010000        4.2415780000       12.5985530000  OH
  H         3.6845667073        8.0423263310       11.9517133665    OH
  O_H         4.0577580000        7.2676710000       12.5981510000  OH
  H         1.1880330712        7.9469610418       12.0395457478    OH
  O_H         1.7449110000        8.6012810000       12.5986030000  OH
  H         2.4715244774        5.8433594228       11.9227770233    OH
  O_H         1.7476030000        5.9312620000       12.5973470000  OH
  H         4.9876840452        0.9138507974       12.3944616769    OH
  O_H         4.2641660000        1.5730840000       12.5982010000  OH
  H        -4.2623921812        8.4795453767       12.4292782999    OH
  O_H        -3.2875550000        8.6006970000       12.5982510000  OH
  H        -2.6425572069        5.2475813089       12.1463781942    OH
  O_H        -3.2859050000        5.9306170000       12.5982510000  OH
  H        -1.1550580725        3.7479938777       11.8191986400    OH
  O_H        -0.7714360000        4.2419610000       12.5977990000  OH
  H        -1.6242983546        7.4291366710       11.8388307229    OH
  O_H        -0.9753180000        7.2679320000       12.5976990000  OH
  H        -0.2203373490        1.5389501752       11.6741838101    OH
  O_H        -0.7692930000        1.5728050000       12.5978500000  OH
  H         1.3016381784        3.8423586857       12.2555310474    OH
  O_H         1.5418280000        2.9092490000       12.5985020000  OH
  H         4.4124796900        2.3893758606       26.8630465484    OH
  O_H         4.2651100000        1.5751130000       26.3371830000  OH
  H        -0.8854195023        2.4376415220       26.8646825047    OH
  O_H        -0.7683490000        1.5748340000       26.3368820000  OH
  H         6.5328510763        2.8077929696       27.3710498987    OH
  O_H         6.5746200000        2.9112950000       26.3375840000  OH
  H         4.9318592823        4.9948068242       26.1536879220    OH
  O_H         4.2628450000        4.2436070000       26.3375840000  OH
  H         1.3439662167        6.6344418589       26.9275422423    OH
  O_H         1.7485470000        5.9332900000       26.3363780000  OH
  H         1.3790482435        2.1715184426       27.0168748882    OH
  O_H         1.5427720000        2.9112770000       26.3375340000  OH
  H         0.0569086309        4.5924634365       26.8191461515    OH
  O_H        -0.7704920000        4.2439900000       26.3367810000  OH
  H        -3.4439623797        6.6600341392       27.0838390363    OH
  O_H        -3.2849610000        5.9326460000       26.3372330000  OH
  H        -0.7399684707        6.3521749193       26.6373598779    OH
  O_H        -0.9743740000        7.2699610000       26.3366810000  OH
  H         2.5279766988        9.1746139923       26.5269903899    OH
  O_H         1.7458650000        8.6033100000       26.3375840000  OH
  H        -2.5085818901        9.2488624213       26.5805051412    OH
  O_H        -3.2866120000        8.6027260000       26.3372330000  OH
  H         3.6735189705        6.7730876201       27.0691296825    OH
  O_H         4.0587020000        7.2696990000       26.3371830000  OH
HW -0.8392985622 5.2080104603 38.3537037096 H2O
HW -0.1297458115 3.9412275584 39.0294135242 H2O
OW -0.9505525215 4.5069303110 39.1144278611 H2O
HW 7.6709621012 3.3729408491 56.8233123755 H2O
HW 8.7715763183 3.7167398207 57.8932806926 H2O
OW 8.6790301824 3.3749066706 56.9631802451 H2O
HW -0.1974461839 6.1706499737 36.3349599701 H2O
HW 0.4738728565 7.0235587933 37.5875812250 H2O
OW -0.2244496408 6.2912511915 37.3392619368 H2O
HW 8.5806399336 -0.1373997232 30.3731290352 H2O
HW 9.8672339578 0.7026356276 31.0152091100 H2O
OW 9.5042482448 -0.2273680890 30.7620026757 H2O
HW -8.7075925046 9.4701970745 34.5671314893 H2O
HW -8.3450573980 8.0655598796 33.8117839825 H2O
OW -8.0419549226 8.7118872802 34.5566178805 H2O
HW 1.0743120410 1.2880264265 42.3692894861 H2O
HW 0.7193847594 2.8518834909 42.6237842165 H2O
OW 0.3456797609 1.9187574738 42.5544702127 H2O
HW -1.7021503088 8.0171230103 56.8384421188 H2O
HW -1.9565970636 9.0403223205 58.1146129839 H2O
OW -2.4150925752 8.4887813714 57.4156969534 H2O
HW 3.0204868431 1.0956052588 32.4824607040 H2O
HW 2.6788767527 2.6120172413 32.2680747406 H2O
OW 2.4861332464 1.7863070549 32.8982995327 H2O
HW -1.6196656539 7.5333953513 43.8541491833 H2O
HW -0.5914389560 6.2737925517 44.2908459496 H2O
OW -0.6870742236 7.3306556612 44.2785240834 H2O
HW 3.2166780834 3.5829629543 42.9596068729 H2O
HW 3.0072907442 5.1260930550 43.0388452277 H2O
OW 2.4862580297 4.3165246907 42.9496288829 H2O
HW 1.0299469944 7.3713777979 49.9292790697 H2O
HW 0.4678460102 8.7616306228 50.5831261118 H2O
OW 0.9002952160 7.8444551923 50.7857955618 H2O
HW 3.9176632623 1.7618583366 60.9229136246 H2O
HW 3.8758190037 0.5786404284 59.8326754447 H2O
OW 3.3782868883 1.4529883605 60.0988340212 H2O
HW 2.3340946822 2.7822016238 35.9180804735 H2O
HW 1.7132242289 2.5077361550 34.4738594738 H2O
OW 1.6981685102 3.1491405356 35.2628756190 H2O
HW 4.0439579749 5.9573516704 36.9638518408 H2O
HW 2.9147432244 5.9820823608 35.8743437167 H2O
OW 3.8832364200 6.1458221984 35.9796916628 H2O
HW -4.8421304564 6.8715869023 46.4499260430 H2O
HW -4.8980303271 8.0570200874 45.3032047704 H2O
OW -5.1295130266 7.0485920472 45.4569138948 H2O
HW 5.8401005359 6.8442209087 49.0475647346 H2O
HW 6.6375693247 7.1992439758 47.7720370885 H2O
OW 5.7916452812 6.7077876064 48.0610290027 H2O
HW 6.8823219813 3.9104882671 53.5525561770 H2O
HW 6.0480658916 2.5942677101 53.6176079269 H2O
OW 6.3520904002 3.2753422753 52.9509340411 H2O
HW 2.8802885953 8.8205588768 52.6413724311 H2O
HW 1.8179263800 7.5409043058 52.2781120862 H2O
OW 2.6234299546 7.8652560965 52.8260132147 H2O
HW 1.1816397489 9.0483865124 29.5947731562 H2O
HW 2.2273431548 8.6840039063 28.2756108631 H2O
OW 1.9723589117 8.4824164105 29.2518206902 H2O
HW 0.8823736690 2.2065453330 38.8811742585 H2O
HW 2.2521096153 3.1168476844 39.0246251652 H2O
OW 1.3006829852 3.1452752214 38.7775321087 H2O
HW -5.1098788659 -4.1494203444 56.4273206188 H2O
HW -3.6847209362 -3.5388617736 56.0575085907 H2O
OW -4.5223075150 -3.3573564312 56.5675577770 H2O
HW 14.8088790736 6.7702297564 33.8725855686 H2O
HW 14.5499511412 6.9320761891 32.3090116532 H2O
OW 14.7188790976 6.2658383808 33.0196416391 H2O
HW -0.3501045002 -0.3326101020 55.2195186123 H2O
HW 0.8123757871 -0.2372885501 56.2328534081 H2O
OW -0.0205373665 -0.7418140398 56.0834299539 H2O
HW -6.1121192686 5.7095530739 54.9853116035 H2O
HW -7.3169277432 6.5444243469 54.1478262224 H2O
OW -7.1007410249 5.9521263774 54.9678389096 H2O
HW 4.3256405331 5.7005956621 60.5903002739 H2O
HW 3.7346041376 6.6329077174 59.5087085734 H2O
OW 3.5141565728 5.7727014184 59.9277134002 H2O
HW 2.5345416668 6.9855585256 41.5847325116 H2O
HW 2.1240978974 8.3671628204 41.2715526571 H2O
OW 2.1498727459 7.4856116500 40.7781207266 H2O
HW -3.8556916048 8.0671294619 39.0117229514 H2O
HW -2.6365769123 7.5413266562 39.8519225802 H2O
OW -3.5480717908 7.2540939690 39.5278933619 H2O
HW 5.2067899491 -1.7703791412 56.2760444580 H2O
HW 4.6710691488 -1.1215105240 55.0172366720 H2O
OW 4.7008178707 -0.9169400231 55.9990451684 H2O
HW 6.0025385362 2.1818357168 55.7598814243 H2O
HW 5.3025772925 0.7789093679 55.6965927807 H2O
OW 5.5083417947 1.5615983424 55.1471290397 H2O
HW -1.2232406268 4.6897812830 40.8578760128 H2O
HW -2.3918447408 4.5440273835 41.9992506014 H2O
OW -1.4875990936 5.0180595205 41.7839297881 H2O
HW -4.3826567441 7.4848033192 30.0574491895 H2O
HW -4.6171021774 6.2676792156 29.1640452982 H2O
OW -3.8835742777 6.8276294377 29.4440063101 H2O
HW 1.7699685217 8.1635778382 46.9187864461 H2O
HW 2.4150435920 6.7853280659 47.5275931838 H2O
OW 2.2006119236 7.7299616759 47.7529846203 H2O
HW 8.1528247489 -0.6694169827 57.4544563859 H2O
HW 7.5817349286 -1.6846012971 56.3044466889 H2O
OW 7.3507092973 -1.2673875139 57.2194683590 H2O
HW 1.8554362769 5.3544238914 59.5771710848 H2O
HW 1.0047926547 5.0087551439 58.2894324436 H2O
OW 0.9951731366 4.9384683177 59.3049633262 H2O
HW 1.0496449290 1.1874283904 44.4203377419 H2O
HW 0.4426563544 1.3816440484 45.9415966108 H2O
OW 0.9841867547 0.7787147241 45.3337124424 H2O
HW -1.7822315208 0.7347310696 50.0426387872 H2O
HW -1.9596399563 0.1686889894 48.6047139319 H2O
OW -1.6525121246 1.0118333630 49.1014004791 H2O
HW -4.7737520702 2.9026794478 46.3051592204 H2O
HW -5.8375564821 2.1732274362 45.1790804518 H2O
OW -4.8508354134 2.3954883042 45.3976839633 H2O
HW 2.4655198299 11.0088462515 42.4586432921 H2O
HW 3.8299169784 10.4308889890 41.7933024323 H2O
OW 2.8442393520 10.4301796442 41.7202573014 H2O
HW -4.7666014905 3.3821317022 57.6688120655 H2O
HW -4.4949324660 4.3305703423 56.2919378820 H2O
OW -4.0586743937 3.5507602193 56.9326433252 H2O
HW 4.7375076074 -1.5373901633 51.9930254040 H2O
HW 3.2232448070 -1.5148922625 52.5203689469 H2O
OW 4.0875473294 -2.0538545141 52.5988817479 H2O
HW 1.9419870441 9.2191319839 37.7180613646 H2O
HW 1.8855380817 8.3737980411 39.0614397996 H2O
OW 1.3619056339 8.5669257657 38.2301901666 H2O
HW -3.7314588475 5.3608114962 38.5506103321 H2O
HW -2.4910166562 4.3303271043 38.4651788126 H2O
OW -3.5030832325 4.4756429207 38.1648133421 H2O
HW 5.2783337501 4.7101515188 50.7237584281 H2O
HW 6.3177510515 3.5694065834 51.1378061585 H2O
OW 5.9461798301 4.0790893900 50.3153298104 H2O
HW 0.8997486028 1.9418165225 54.8929920334 H2O
HW 1.2357993937 2.3906609588 53.4560230185 H2O
OW 1.1329800731 1.5364532551 53.9801355669 H2O
HW 1.2743329419 9.5687892082 45.3210303018 H2O
HW 0.6706945413 8.1658167277 44.7824805896 H2O
OW 1.5064611773 8.5992344977 45.2634601185 H2O
HW -0.2742003104 10.3746426353 35.3571469480 H2O
HW -0.0018641879 11.6885854445 34.3335284136 H2O
OW 0.1910491935 10.7084799540 34.4701042390 H2O
HW 0.1770403876 4.0856544853 45.5924778560 H2O
HW -0.6465661540 3.8317150466 47.0035699454 H2O
OW 0.1215270702 3.4996247676 46.4222034620 H2O
HW 6.0721380871 3.1075795854 44.0216660395 H2O
HW 6.5763422372 4.5427094311 43.5210230080 H2O
OW 6.3786218518 3.5763811205 43.1858245576 H2O
HW 4.0926697624 0.4867595389 37.4522967365 H2O
HW 3.0215385929 0.4706593992 36.3030447022 H2O
OW 3.8760863170 0.9448996843 36.5540329706 H2O
HW -1.0973256113 8.3326761532 46.9158741798 H2O
HW -2.5197450967 8.9805633618 46.4385394025 H2O
OW -2.0939252875 8.3466126969 47.0583661726 H2O
HW 1.8048891732 2.2323185069 57.0897638511 H2O
HW 0.2475872679 2.5538876081 56.9841517895 H2O
OW 1.0830959601 2.4962104862 56.4063658708 H2O
HW 1.3332496499 4.8338428888 35.1392765588 H2O
HW 0.2172916466 5.4968586953 34.1030850180 H2O
OW 0.7002501276 5.6033627053 34.9883263110 H2O
HW 4.0733684049 11.0374296732 51.9901762523 H2O
HW 2.5707423045 10.8194180105 52.5106642687 H2O
OW 3.3633165494 10.3398107391 52.1073502313 H2O
HW 2.8402538689 -1.8104514035 29.0127929225 H2O
HW 3.9241435878 -1.2201801207 27.8559661098 H2O
OW 3.7150169532 -1.3303972296 28.8183526210 H2O
HW 0.0649344841 5.0842748416 52.4270192171 H2O
HW 1.1572376521 4.2222907070 51.7586261637 H2O
OW 0.2921766438 4.1212890199 52.2733007144 H2O
HW 1.0733726786 10.7290660364 32.9112789922 H2O
HW 0.4448843237 10.0257681958 31.5293208977 H2O
OW 1.1825547342 10.6580057002 31.9014915583 H2O
HW -0.6077980400 4.8526691523 43.2867441040 H2O
HW 0.9765783946 4.6119694301 43.6726233734 H2O
OW 0.0615871553 4.7955087966 44.0873666789 H2O
HW -2.2752565605 5.0176388788 59.5536880683 H2O
HW -0.8209941370 4.8548717954 59.7675024058 H2O
OW -1.6042655310 4.2425515808 59.5631188324 H2O
HW 7.2800069887 4.9409728055 33.6330274958 H2O
HW 6.3689646494 5.4340859834 32.5176793745 H2O
OW 7.3078497941 5.1306484365 32.6463307833 H2O
HW 3.7641025822 2.9982426204 29.5925072741 H2O
HW 2.1484507972 2.4911100787 29.8273670592 H2O
OW 3.1069349434 2.3889557018 30.0212496185 H2O
HW -5.7111572792 9.8825659985 38.2167392360 H2O
HW -5.9126090765 9.8133796030 39.8732944968 H2O
OW -5.2549178661 9.6787003871 39.1103985426 H2O
HW -4.9126285685 4.9698134885 47.5713710312 H2O
HW -4.2226169423 3.7330662892 48.2885971139 H2O
OW -4.8902176164 3.9425367851 47.5622390346 H2O
HW -4.0181586163 6.5408792236 44.2371730435 H2O
HW -3.7149797465 6.9828761617 42.7743284118 H2O
OW -3.5048584339 6.2642468664 43.4350896769 H2O
HW 7.2718645502 3.3406432784 29.4843177287 H2O
HW 5.8260072374 3.8897999774 29.2138410677 H2O
OW 6.4489889965 3.1812266379 28.8688759837 H2O
HW -1.6842301453 5.6532921499 53.7936792807 H2O
HW -1.3070425985 4.1802263193 54.5526431611 H2O
OW -1.9905004061 4.9342231504 54.4694593631 H2O
HW 5.0221083902 2.7351638014 42.5646563333 H2O
HW 4.1624768119 2.6315327349 41.1418650519 H2O
OW 4.0985802121 2.4872712286 42.1378310781 H2O
HW -2.4551406242 3.0114814629 31.2778416637 H2O
HW -1.8229646840 4.4495465451 31.2928785946 H2O
OW -1.7300718327 3.5542178461 30.7669885574 H2O
HW -4.4539307959 7.5120150890 36.5563129559 H2O
HW -5.0089905731 9.0340061976 36.5372080970 H2O
OW -4.2089753297 8.4476612490 36.5999398383 H2O
HW 0.8238177183 8.7371844721 60.0501516796 H2O
HW 0.3085068882 7.9178442523 58.7701377513 H2O
OW 0.1095182668 8.1146338824 59.7460119232 H2O
HW -1.9281028777 9.7901550231 42.4083338569 H2O
HW -2.1560240370 8.3455571732 41.6769588316 H2O
OW -2.5769928956 9.0423896584 42.3008258986 H2O
HW 3.2408196078 5.7983175724 50.7744724543 H2O
HW 2.2030097125 5.1149947817 49.7157600121 H2O
OW 2.4406388952 5.1755287567 50.6892331167 H2O
HW -4.5136460519 6.4802853694 51.9924381044 H2O
HW -6.0955413862 6.8257515095 51.9114216118 H2O
OW -5.3353902008 6.2701591698 51.4920635867 H2O
HW -1.8327534161 9.0374908942 50.1925983940 H2O
HW -3.0677017625 9.1958309548 49.1603173080 H2O
OW -2.6891722627 8.6052064807 49.9143015237 H2O
HW 3.5166077645 10.4993910594 36.0903137125 H2O
HW 2.9319016922 8.9942909541 36.1567795204 H2O
OW 3.4042847366 9.6823335956 36.7264103969 H2O
HW 1.8908048791 -0.7127879623 51.4732660051 H2O
HW 1.4102040814 -0.1627260183 52.8752426209 H2O
OW 1.6694394291 -0.9945406345 52.4656832488 H2O
HW 7.7084553467 2.7261555100 59.7033210711 H2O
HW 6.7615099267 2.4417368668 60.8958816826 H2O
OW 6.9289861649 2.1160010965 59.9364007557 H2O
HW 8.3533306048 4.2861180407 35.4610468265 H2O
HW 9.7282951490 3.4660353348 35.2179975192 H2O
OW 8.7124471916 3.3126397323 35.4058605253 H2O
HW -8.4740691425 6.7432511344 29.7379593154 H2O
HW -8.9863034043 6.0974945157 31.1571749579 H2O
OW -8.5032803758 5.8589215627 30.2396199228 H2O
HW -0.4628244100 3.2505768922 29.9368787106 H2O
HW 0.8576435644 4.1793986722 29.9721200609 H2O
OW 0.4670444344 3.3704633506 29.5173172122 H2O
HW 3.3399574534 2.6390177196 58.8810831218 H2O
HW 3.6564538819 4.1687246453 58.9527799049 H2O
OW 3.5698210175 3.4256063878 58.2909536888 H2O
HW -1.0767420504 8.0236447392 30.3778295357 H2O
HW -1.5282471922 9.5367685507 30.5700706750 H2O
OW -0.9061634710 8.8534194450 30.9572815549 H2O
HW 4.2076012238 4.7390809438 28.1172133510 H2O
HW 3.2661479805 5.2755638023 29.4238367356 H2O
OW 4.1480590419 4.9146795653 29.1580805954 H2O
HW 1.5722621382 1.6876610625 60.4361827103 H2O
HW 0.3770145165 2.8157857652 60.1106098425 H2O
OW 0.5537176416 1.8250313916 60.3426702354 H2O
HW -1.0973639411 6.2291452650 32.8125361865 H2O
HW -0.5121627515 7.6007551065 32.1214781929 H2O
OW -0.2699414932 6.7896366666 32.6775374022 H2O
HW -5.8438496440 1.5287384450 51.4765911266 H2O
HW -5.2298836414 2.5563570572 50.4108446985 H2O
OW -5.4751670887 1.5834187921 50.5321496768 H2O
HW 5.5080650722 2.9557945796 38.6796552937 H2O
HW 4.4355341051 3.9015284991 39.1221747559 H2O
OW 4.6278141069 2.9024928811 39.1645928861 H2O
HW 6.6598651676 5.5240524985 55.0850718611 H2O
HW 5.4669861144 6.5003444920 55.6875952533 H2O
OW 5.6497556054 5.5789318101 55.3942137687 H2O
HW -3.5310390644 4.9104742426 36.1994323381 H2O
HW -2.6605750243 6.1941975608 36.2968654249 H2O
OW -2.9545438166 5.5635171970 35.5973391590 H2O
HW 3.1558738744 6.3252677462 39.3112997067 H2O
HW 4.5930327728 6.7461533992 38.9866996457 H2O
OW 3.8998740741 6.0817921033 38.7208035198 H2O
HW 1.5169895735 -2.2026519687 61.0109244116 H2O
HW 0.9873662018 -1.8118485914 59.4664386107 H2O
OW 1.4613348827 -2.4730956363 60.0607025564 H2O
HW -5.3974862596 9.2047100813 59.5511539895 H2O
HW -5.0201485489 8.3435983491 58.3312921148 H2O
OW -5.6251571164 8.3115441589 59.1329315333 H2O
HW -1.2393802363 6.6379096628 41.3689455977 H2O
HW -0.2501414423 7.4193870276 40.2401496956 H2O
OW -1.1389370630 7.4763688040 40.7709517474 H2O
HW 0.6306970017 2.6542852768 47.6894059040 H2O
HW 0.0347255727 1.6355916835 48.8329761112 H2O