&GLOBAL
   PROJECT_NAME slab
   RUN_TYPE ENERGY
   PRINT_LEVEL MEDIUM
&END GLOBAL
&FORCE_EVAL
   METHOD Quickstep
   &PROPERTIES
    &TDDFPT
       NSTATES     3            # number of excited states
       MAX_ITER    200           # maximum number of Davidson iterations
       CONVERGENCE [eV] 1.0e-5   # convergence on maximum energy change between iterations
       !NLUMO 10
       !MIN_AMPLITUDE 5.00E-002
       &MGRID
          CUTOFF 300 # separate cutoff for TDDFPT calc
       &END
       !RESTART     
       &PRINT
        !&MOS_MOLDEN ON
           !LOG_PRINT_KEY .FALSE.
        !&END
        &NTO_ANALYSIS ON
           CUBE_FILES .FALSE.
           LOG_PRINT_KEY .TRUE.
           STRIDE 1 1 1
           &EACH
           &END EACH
        &END
       &END PRINT
    &END TDDFPT
  &END PROPERTIES
  &PRINT
    &FORCES
    &END
    &TOTAL_NUMBERS  ON
    &END TOTAL_NUMBERS
  &END PRINT
   &DFT
    &PRINT
      &MULLIKEN ON
      &END
      &HIRSHFELD ON
      SELF_CONSISTENT .FALSE.
      REFERENCE_CHARGE  MULLIKEN
      SHAPE_FUNCTION  DENSITY
      &END
      !&PLUS_U 
       !&EACH
       ! QS_SCF 1
       !&END EACH
      !&END PLUS_U
      &PDOS SILENT
        COMPONENTS T
        NLUMO  -1
	APPEND T
	FILENAME 
      &END PDOS
      &MO_CUBES
        NLUMO 1
        NHOMO 1
        WRITE_CUBE  .TRUE.
        STRIDE 1 1 1
      &END
      &E_DENSITY_CUBE
        STRIDE 1 1 1
      &END
      &MO
        !COEFFICIENTS
        !ENERGIES
        FILENAME 
	EIGENVECTORS F
        EIGENVALUES F
        !MO_INDEX_RANGE 0 2000
        NDIGITS 8
        !OCCUPATION_NUMBERS
        !CARTESIAN .FALSE.
      &END MO
      &MO_MOLDEN
        NDIGITS 8
        GTO_KIND SPHERICAL
        FILENAME 
      &END MO_MOLDEN
    &END PRINT
      UKS    .TRUE.
      CHARGE  0
      MULTIPLICITY  1
      PLUS_U_METHOD MULLIKEN
!      RELAX_MULTIPLICITY  1
      BASIS_SET_FILE_NAME  BASIS_MOLOPT
      POTENTIAL_FILE_NAME  POTENTIAL
      WFN_RESTART_FILE_NAME .wfn
      &POISSON
         PERIODIC XYZ
      &END POISSON
      &QS
        EXTRAPOLATION ASPC 
        METHOD GPW
      &END QS
      &MGRID
         NGRIDS 4
         CUTOFF 700
         REL_CUTOFF 60
      &END MGRID
      &SCF
         SCF_GUESS RESTART
         EPS_SCF 1.0E-6
         MAX_SCF 500
         MAX_ITER_LUMO 1000
         EPS_LUMO 1.0E-5
         EPS_DIIS   1.00000000E-003
         ADDED_MOS 50
         !&OT T
            !MINIMIZER  DIIS
            !PRECONDITIONER  FULL_ALL
         !&END OT
         &DIAGONALIZATION
            ALGORITHM STANDARD
            EPS_ADAPT 0.01
         &END DIAGONALIZATION
         &OUTER_SCF T
            EPS_SCF 1.0E-6
            MAX_SCF 100
         &END OUTER_SCF
         !&SMEAR  ON
            !METHOD FERMI_DIRAC
            !ELECTRONIC_TEMPERATURE [K] 500
         !&END SMEAR
         &MIXING
            METHOD BROYDEN_MIXING
            ALPHA 0.5
            NBROYDEN 8
         &END MIXING
      &END SCF
      &XC
         &XC_FUNCTIONAL PBE
         &END XC_FUNCTIONAL
	 &VDW_POTENTIAL
            POTENTIAL_TYPE PAIR_POTENTIAL
         &PAIR_POTENTIAL
            PARAMETER_FILE_NAME dftd3.dat
            TYPE DFTD3
            REFERENCE_FUNCTIONAL PBE
            R_CUTOFF [angstrom] 16
         &END
      &END VDW_POTENTIAL
         ! Use this if you are using other versions of CP2K lower than version 7.
         !&XC_GRID
         !  XC_DERIV SPLINE2_SMOOTH
         !&END XC_GRID
      &END XC
!      &KPOINTS
!         SCHEME MONKHORST-PACK 6 6 2
!         WAVEFUNCTIONS REAL
!         SYMMETRY .TRUE.
!         FULL_GRID .FALSE.
!         PARALLEL_GROUP_SIZE -1
!      &END KPOINTS
   &END DFT
   &SUBSYS
      &CELL
         PERIODIC XYZ
	 A  10.0660314560         0.0000000000         0.0000000000
         B  -5.0330136805         8.7170359926         0.0000000000
         C   0.0028619521         0.0060767550        50.2170443811
         MULTIPLE_UNIT_CELL 1 1 1
      &END CELL
      &TOPOLOGY
          COORD_FILE_NAME hematite-water.xyz
          COORD_FILE_FORMAT  XYZ
          MULTIPLE_UNIT_CELL 1 1 1 
      &END TOPOLOGY
      &KIND  O
         ELEMENT O
         BASIS_SET DZVP-MOLOPT-SR-GTH
         POTENTIAL GTH-PBE-q6
         &DFT_PLUS_U
          L 1
          U_MINUS_J [eV] 2.0
         &END DFT_PLUS_U
         &BS
           &ALPHA
            NEL +2  
            L    1   
            N    2   
           &END ALPHA
           &BETA
            NEL +2  
            L    1   
            N    2   
           &END BETA
         &END BS
      &END KIND
      &KIND  O_H
         ELEMENT O
         BASIS_SET DZVP-MOLOPT-SR-GTH
         POTENTIAL GTH-PBE-q6
         &DFT_PLUS_U
          L 1
          U_MINUS_J [eV] 2.0
         &END DFT_PLUS_U
         &BS
           &ALPHA
            NEL +2
            L    1
            N    2
           &END ALPHA
           &BETA
            NEL +2
            L    1
            N    2
           &END BETA
         &END BS
      &END KIND
      &KIND  Fe1
         ELEMENT Fe
         BASIS_SET DZVP-MOLOPT-SR-GTH
         POTENTIAL GTH-PBE-q16
         &DFT_PLUS_U 
          L 2
          U_MINUS_J [eV] 3.0
          &ENFORCE_OCCUPATION
           EPS_SCF 1.0E-6
           MAX_SCF 20 
           ORBITALS -2 -1 +0 +1 +2 
           SMEAR on
          &END ENFORCE_OCCUPATION
         &END DFT_PLUS_U
         &BS
           &ALPHA
            NEL +4 -2  
            L    2  0   
            N    3  4   
           &END ALPHA
           &BETA
            NEL -6 -2  
            L    2  0   
            N    3  4   
           &END BETA
         &END BS
      &END KIND
      &KIND  Fe2
         ELEMENT Fe
         BASIS_SET DZVP-MOLOPT-SR-GTH
         POTENTIAL GTH-PBE-q16
         &DFT_PLUS_U
          L 2
          U_MINUS_J [eV] 3.0
          &ENFORCE_OCCUPATION
           EPS_SCF 1.0E-6
           MAX_SCF 20 
           ORBITALS -2 -1 +0 +1 +2 
           SMEAR on
          &END ENFORCE_OCCUPATION
         &END DFT_PLUS_U
         &BS
           &ALPHA
            NEL -6 -2  
            L    2  0   
            N    3  4   
           &END ALPHA
           &BETA
            NEL +4 -2  
            L    2  0   
            N    3  4   
           &END BETA
         &END BS
      &END KIND
      &KIND  HW
        ELEMENT H
        BASIS_SET DZVP-MOLOPT-SR-GTH
        POTENTIAL GTH-PBE-q1
      &END KIND
      &KIND  H
        ELEMENT H
        BASIS_SET DZVP-MOLOPT-SR-GTH
        POTENTIAL GTH-PBE-q1
      &END KIND
      &KIND  OW
        ELEMENT O
        BASIS_SET DZVP-MOLOPT-SR-GTH
        POTENTIAL GTH-PBE-q6
      &END KIND
   &END SUBSYS
&END FORCE_EVAL
